python/teste5
3 3
1 3 2 1 0 4
1 1 2 9 0 5
1 10 0 6 2 9
